NAME : TSP_INST.7814936.tour
COMMENT : Length = 7814936
COMMENT : Found by LKH [Keld Helsgaun] Sat Oct 18 11:07:56 2025
TYPE : TOUR
DIMENSION : 100
TOUR_SECTION
1
11
69
22
31
28
75
34
52
27
44
42
21
94
77
15
19
57
90
4
96
5
65
43
47
36
24
12
88
18
62
10
99
74
58
6
80
91
78
29
17
84
60
72
89
85
33
40
81
25
56
86
20
8
92
79
2
49
73
76
37
59
13
66
26
64
45
93
7
50
41
70
82
68
67
46
61
95
98
48
35
54
63
16
71
39
97
30
14
87
55
51
3
38
53
32
23
100
9
83
-1
EOF
